5
4
20
1 1.3 1.55 1.75 2.1
14 14 15 42 36 37 43 41 47 33 43 32 39 38 46 22 11 46 27 19 22 13 19 18 32 13 24 21 34 29 49 43 9 32 47 26 19 22 11 10 30 39 20 26 45 19 14 22 37 43 31 11 28 45 22 8 13 34 46 36 17 39 45 33 42 36 33 48 38 16 49 45 33 44 48 41 44 38 21 11 